NAME : n60w60.004.639.tour
COMMENT : Length = 639
COMMENT : Found by LKH [Keld Helsgaun] Tue May  2 05:46:15 2017
TYPE : TOUR
DIMENSION : 61
TOUR_SECTION
1
50
35
46
42
24
28
3
32
13
37
7
38
12
55
6
15
20
2
51
27
14
54
34
19
5
57
25
33
59
43
4
9
53
44
41
47
23
16
45
48
18
22
30
21
52
49
26
8
11
40
58
56
10
36
31
39
17
61
60
29
-1
EOF
